4	143	143	0	15	15
5	144	103	0	0	0
6	236	184	0	0	0
7	279	240	0	16	16
8	267	245	0	15	15
9	261	225	0	31	31
10	385	227	0	15	15
11	438	308	0	203	203
12	377	315	0	16	16
13	541	338	0	31	31
14	551	394	0	31	31
15	675	402	0	47	47
16	560	371	0	31	31
17	656	427	0	94	94
18	634	417	0	188	188
19	875	538	0	78	78
